NAME : B-n51-k7
COMMENT : (Augerat et al, Min no of trucks: 7, Optimal value: 1032)
TYPE : CVRP
DIMENSION : 51
EDGE_WEIGHT_TYPE : EUC_2D 
CAPACITY : 100
NODE_COORD_SECTION 
1 53 55
2 1 90
3 94 85
4 13 19
5 97 45
6 78 69
7 92 35
8 98 36
9 99 0
10 2 94
11 85 77
12 94 42
13 101 3
14 103 51
15 106 38
16 9 95
17 88 71
18 83 77
19 100 55
20 17 23
21 3 91
22 6 91
23 9 102
24 9 95
25 8 104
26 9 99
27 98 39
28 101 8
29 99 38
30 103 54
31 3 103
DEMAND_SECTION 
1 0 
2 9 
3 10 
4 14 
5 5 
6 8 
7 10 
8 15 
9 16 
10 23 
11 4 
12 22 
13 16 
14 12 
15 20 
16 18 
17 9 
18 17 
19 42 
20 9 
21 17 
22 7 
23 4 
24 7 
25 13 
26 6 
27 22 
28 6 
29 13 
30 21 
31 16 
DEPOT_SECTION 
1  
-1  
EOF 
